(set-logic QF_S)
(declare-const x String)
(declare-const y String)
(declare-const m String)
(declare-const n String)
(assert (str.in.re x (re.++ (re.* (str.to.re "bb")) (str.to.re "wa"))))
(assert (str.in.re x (re.union (str.to.re "c") (re.+ (str.to.re "KZR")))))
(assert (str.in.re x (re.++ (re.++ (re.* (str.to.re "@hc")) (re.* (str.to.re "'c0x\\'4"))) (str.to.re "a"))))
(check-sat)
